1.000000 1.000000 0.750000
5
5 2 3 4 5 6 
5 7 8 9 10 11 
5 12 13 14 15 16 
5 17 18 19 20 21 
5 22 23 24 25 26 
1 1 
1 2 
1 2 
1 2 
1 2 
1 2 
1 2 
1 2 
1 2 
1 2 
1 2 
1 2 
1 2 
1 2 
1 2 
1 2 
1 2 
1 2 
1 2 
1 2 
1 2 
1 2 
1 2 
1 2 
1 2 
1 2 
1 2 
1 2 
1 2 
1 2 
1 2 
1 2 
1 2 
1 2 
1 2 
1 2 
1 2 
1 2 
1 2 
1 2 
1 2 
1 2 
1 2 
1 2 
1 2 
1 2 
1 2 
1 2 
1 2 
1 2 
1 2 
1 2 
1 2 
1 3 
1 3 
1 3 
1 3 
1 3 
1 3 
1 3 
1 3 
1 3 
1 3 
1 3 
1 3 
1 3 
1 3 
1 3 
1 3 
1 3 
1 3 
1 3 
1 3 
1 3 
1 3 
1 3 
1 3 
1 3 
1 3 
1 3 
1 3 
1 3 
1 3 
1 3 
1 3 
1 3 
1 3 
1 3 
1 3 
1 3 
1 3 
1 3 
1 3 
1 3 
1 3 
1 3 
1 3 
1 3 
1 3 
1 3 
1 3 
1 3 
1 3 
1 3 
1 3 
1 4 
1 4 
1 4 
1 4 
1 4 
1 4 
1 4 
1 4 
1 4 
1 4 
1 4 
1 4 
1 4 
1 4 
1 4 
1 4 
1 4 
1 4 
1 4 
1 4 
1 4 
1 4 
1 4 
1 4 
1 4 
1 4 
1 4 
1 4 
1 4 
1 4 
1 4 
2 4 2 
1 4 
1 4 
2 4 2 
2 4 2 
2 4 2 
1 4 
2 4 2 
2 4 2 
2 4 2 
2 4 2 
2 4 2 
2 4 2 
2 4 2 
2 4 2 
2 4 2 
2 4 2 
2 4 2 
2 4 2 
2 4 2 
2 4 2 
1 5 
1 5 
1 5 
1 5 
1 5 
1 5 
1 5 
1 5 
1 5 
1 5 
1 5 
1 5 
1 5 
1 5 
1 5 
1 5 
1 5 
1 5 
1 5 
1 5 
1 5 
1 5 
1 5 
1 5 
1 5 
1 5 
1 5 
1 5 
1 5 
1 5 
1 5 
1 5 
1 5 
1 5 
1 5 
1 5 
1 5 
1 5 
1 5 
1 5 
1 5 
1 5 
1 5 
1 5 
1 5 
1 5 
1 5 
1 5 
1 5 
1 5 
1 5 
1 5 
1 6 
1 6 
1 6 
1 6 
1 6 
2 6 4 
1 6 
1 6 
1 6 
2 6 4 
1 6 
2 6 4 
1 7 
1 7 
1 7 
1 7 
1 7 
1 7 
1 7 
1 7 
1 7 
1 7 
1 7 
1 7 
1 7 
1 7 
1 7 
1 7 
1 7 
1 7 
1 7 
1 7 
1 7 
1 7 
1 7 
1 7 
1 7 
1 7 
1 7 
1 7 
1 7 
1 7 
1 7 
1 7 
1 7 
1 7 
1 7 
1 7 
1 7 
1 7 
1 7 
1 7 
1 7 
1 7 
1 8 
1 8 
1 8 
1 8 
1 8 
2 8 3 
1 8 
1 8 
1 8 
1 8 
1 8 
1 8 
1 8 
1 8 
2 8 3 
2 8 3 
2 8 3 
2 8 3 
2 8 3 
2 8 3 
2 8 3 
2 8 3 
2 8 3 
2 8 3 
2 8 3 
2 8 3 
2 8 3 
2 8 3 
2 8 3 
2 8 3 
2 8 3 
2 8 3 
2 8 3 
2 8 3 
2 8 3 
2 8 3 
2 8 3 
2 8 3 
2 8 3 
2 8 3 
2 8 3 
2 8 3 
1 9 
1 9 
1 9 
1 9 
1 9 
1 9 
1 9 
1 9 
2 9 6 
1 9 
2 9 7 
3 9 6 7 
1 10 
1 10 
1 10 
1 10 
1 10 
1 10 
1 10 
1 10 
1 10 
1 10 
1 10 
1 10 
1 10 
1 10 
1 10 
1 10 
1 10 
1 10 
1 10 
1 10 
1 10 
1 10 
1 10 
1 10 
1 10 
1 10 
1 10 
1 10 
1 10 
1 10 
1 10 
1 10 
1 10 
1 10 
1 10 
1 10 
1 10 
1 10 
1 10 
1 10 
1 10 
1 10 
1 11 
1 11 
1 11 
1 11 
2 11 9 
1 11 
1 11 
2 11 9 
2 11 9 
1 11 
2 11 9 
1 11 
2 11 9 
2 11 9 
2 11 9 
1 11 
2 11 9 
2 11 9 
2 11 9 
2 11 9 
2 11 9 
2 11 9 
2 11 9 
2 11 9 
2 11 9 
2 11 9 
2 11 9 
2 11 9 
2 11 9 
2 11 9 
2 11 9 
2 11 9 
2 11 9 
2 11 9 
2 11 9 
2 11 9 
2 11 9 
2 11 9 
2 11 9 
2 11 9 
2 11 9 
2 11 9 
1 12 
1 12 
1 12 
1 12 
1 12 
1 12 
1 12 
1 12 
1 12 
1 12 
1 12 
1 12 
1 13 
1 13 
1 13 
1 13 
1 13 
1 13 
1 13 
1 13 
1 13 
1 13 
1 13 
1 13 
1 13 
1 13 
1 13 
2 13 12 
1 13 
2 13 12 
1 13 
1 13 
2 13 12 
2 13 12 
2 13 12 
2 13 12 
2 13 12 
2 13 12 
3 13 8 12 
3 13 8 12 
2 13 12 
2 13 12 
2 13 12 
3 13 8 12 
1 14 
1 14 
1 14 
1 14 
1 14 
1 14 
1 14 
1 14 
1 14 
1 14 
1 14 
1 14 
1 14 
1 14 
1 14 
1 14 
1 14 
1 14 
1 14 
1 14 
1 14 
1 14 
1 14 
1 14 
1 14 
1 14 
1 14 
1 14 
1 14 
1 14 
1 14 
1 14 
1 15 
1 15 
1 15 
1 15 
1 15 
1 15 
1 15 
1 15 
1 15 
1 15 
1 15 
1 15 
1 15 
1 15 
1 15 
1 15 
1 15 
1 15 
1 15 
1 15 
1 15 
1 15 
1 15 
1 15 
1 15 
1 15 
1 15 
1 15 
1 15 
1 15 
1 15 
1 15 
1 16 
1 16 
1 16 
1 16 
1 16 
1 16 
1 16 
1 16 
1 16 
1 16 
1 16 
1 16 
1 16 
1 16 
1 16 
1 16 
1 16 
1 16 
1 16 
1 16 
1 16 
1 16 
1 16 
1 16 
1 16 
1 16 
1 16 
1 16 
1 16 
1 16 
1 16 
1 16 
1 17 
1 17 
1 17 
1 17 
1 17 
1 17 
1 17 
1 17 
1 17 
1 17 
1 17 
1 17 
1 17 
1 17 
1 17 
3 17 11 9 
1 17 
1 17 
1 17 
1 17 
1 17 
3 17 11 9 
1 18 
1 18 
1 18 
1 18 
1 18 
1 18 
1 18 
1 18 
1 18 
1 18 
1 18 
1 18 
1 18 
1 18 
1 18 
1 18 
1 18 
1 18 
1 18 
1 18 
2 18 10 
2 18 10 
1 19 
1 19 
1 19 
1 19 
1 19 
1 19 
1 19 
1 19 
1 19 
1 19 
1 19 
1 19 
1 20 
1 20 
1 20 
1 20 
1 20 
1 20 
1 20 
1 20 
1 20 
1 20 
1 20 
1 20 
1 20 
1 20 
1 20 
2 20 13 
1 20 
1 20 
2 20 18 
1 20 
1 20 
3 20 13 18 
1 21 
1 21 
1 21 
1 21 
1 21 
1 21 
1 21 
1 21 
1 21 
1 21 
1 21 
1 21 
1 21 
1 21 
1 21 
1 21 
1 21 
1 21 
1 21 
1 21 
1 21 
1 21 
1 22 
1 22 
1 22 
1 22 
1 22 
1 22 
1 22 
1 22 
1 22 
1 22 
1 22 
1 22 
1 23 
1 23 
1 23 
2 23 5 
1 23 
3 23 5 17 
1 23 
1 23 
3 23 5 17 
2 23 5 
1 23 
3 23 5 17 
1 24 
1 24 
2 24 19 
1 24 
2 24 19 
1 24 
3 24 14 19 
3 24 14 19 
2 24 19 
2 24 19 
3 24 15 16 
5 24 14 15 16 19 
1 25 
1 25 
1 25 
1 25 
1 25 
1 25 
1 25 
1 25 
1 25 
1 25 
1 25 
1 25 
1 26 
1 26 
1 26 
1 26 
1 26 
1 26 
1 26 
1 26 
1 26 
1 26 
1 26 
1 26 
1 1 
